Minimize
  - 34 y_0 - 24 y_1 - 25 y_2 - 27 y_3 - 42 y_4 - 47 y_5 - 45 y_6 - 45 y_7
   - 44 y_8 - 22 y_9 - 44 y_10 - 30 y_11 - 37 y_12 - 35 y_13 - 36 y_14
   - 37 y_15 - 44 y_16 - 37 y_17 - 22 y_18 - 37 y_19 - 17 y_20 - 28 y_21
   - 27 y_22 - 30 y_23 - 40 y_24 - 27 y_25 - 28 y_26 - 48 y_27 - 12 y_28
   - 25 y_29 - 38 y_30 - 45 y_31 - 20 y_32 - 54 y_33 - 42 y_34 - 24 y_35
   - 34 y_36 - 27 y_37 - 47 y_39 - 35 y_40 - 46 y_41 - 22 y_42 - 44 y_43
   - 20 y_44 - 37 y_45 - 38 y_46 - 39 y_47 - 55 y_48 - 32 y_49
   + 1695 Constant
Subject To
 c_0: y_41 = 1
 c_1_0: y_0 + y_15 + y_30 + y_36 + y_40 + y_47 >= 1
 c_1_1: y_1 + y_21 + y_35 + y_42 >= 1
 c_1_2: y_2 + y_3 + y_9 + y_22 + y_26 + y_29 + y_37 >= 1
 c_1_3: y_2 + y_3 + y_9 + y_26 + y_29 + y_37 >= 1
 c_1_4: y_4 >= 1
 c_1_5: y_5 + y_6 + y_10 + y_16 >= 1
 c_1_6: y_5 + y_6 + y_10 + y_39 >= 1
 c_1_7: y_7 >= 1
 c_1_8: y_8 + y_43 >= 1
 c_1_9: y_2 + y_3 + y_9 + y_18 + y_29 + y_37 >= 1
 c_1_10: y_5 + y_6 + y_10 + y_16 >= 1
 c_1_11: y_11 + y_21 >= 1
 c_1_12: y_12 + y_13 + y_19 + y_34 + y_45 >= 1
 c_1_13: y_12 + y_13 + y_19 + y_45 >= 1
 c_1_14: y_14 >= 1
 c_1_15: y_0 + y_15 + y_24 + y_30 + y_40 + y_47 >= 1
 c_1_16: y_5 + y_10 + y_16 >= 1
 c_1_17: y_17 + y_49 >= 1
 c_1_18: y_9 + y_18 >= 1
 c_1_19: y_12 + y_13 + y_19 + y_45 >= 1
 c_1_20: y_20 >= 1
 c_1_21: y_1 + y_11 + y_21 + y_35 >= 1
 c_1_22: y_2 + y_22 + y_26 + y_29 >= 1
 c_1_23: y_23 + y_25 + y_49 >= 1
 c_1_24: y_15 + y_24 + y_30 + y_47 >= 1
 c_1_25: y_23 + y_25 + y_49 >= 1
 c_1_26: y_2 + y_3 + y_22 + y_26 + y_29 + y_37 >= 1
 c_1_27: y_27 + y_31 + y_41 >= 1
 c_1_28: y_28 >= 1
 c_1_29: y_2 + y_3 + y_9 + y_22 + y_26 + y_29 + y_37 >= 1
 c_1_30: y_0 + y_15 + y_24 + y_30 + y_40 + y_47 >= 1
 c_1_31: y_27 + y_31 + y_41 >= 1
 c_1_32: y_32 + y_44 >= 1
 c_1_33: y_33 >= 1
 c_1_34: y_12 + y_34 >= 1
 c_1_35: y_1 + y_21 + y_35 + y_42 >= 1
 c_1_36: y_0 + y_36 + y_40 >= 1
 c_1_37: y_2 + y_3 + y_9 + y_26 + y_29 + y_37 >= 1
 c_1_38: y_38 >= 1
 c_1_39: y_6 + y_39 >= 1
 c_1_40: y_0 + y_15 + y_30 + y_36 + y_40 + y_47 >= 1
 c_1_41: y_27 + y_31 + y_41 >= 1
 c_1_42: y_1 + y_35 + y_42 >= 1
 c_1_43: y_8 + y_43 >= 1
 c_1_44: y_32 + y_44 >= 1
 c_1_45: y_12 + y_13 + y_19 + y_45 >= 1
 c_1_46: y_46 >= 1
 c_1_47: y_0 + y_15 + y_24 + y_30 + y_40 + y_47 >= 1
 c_1_48: y_48 >= 1
 c_1_49: y_17 + y_23 + y_25 + y_49 >= 1
Bounds
 Constant = 1
Binaries
 y_0 y_1 y_2 y_3 y_4 y_5 y_6 y_7 y_8 y_9 y_10 y_11 y_12 y_13 y_14 y_15 y_16
 y_17 y_18 y_19 y_20 y_21 y_22 y_23 y_24 y_25 y_26 y_27 y_28 y_29 y_30 y_31
 y_32 y_33 y_34 y_35 y_36 y_37 y_38 y_39 y_40 y_41 y_42 y_43 y_44 y_45 y_46
 y_47 y_48 y_49
End
